183
0 138 119 73 146 86 133 181 31 85 
46 57 60 147 18 180 160 148 38 27 
142 52 19 158 169 37 35 9 101 131 
106 156 140 1 62 7 155 78 178 134 
74 29 171 61 13 32 176 55 163 47 
151 40 182 116 167 177 124 162 82 91 
89 92 76 166 170 132 104 118 42 28 
11 67 41 80 50 81 72 103 109 161 
77 10 143 120 172 123 12 6 115 121 
141 26 84 122 75 51 54 44 70 144 
64 107 117 39 130 23 87 96 179 48 
34 149 45 30 21 152 58 69 94 99 
14 129 128 97 159 71 100 79 110 59 
16 165 168 136 108 3 33 2 114 175 
5 150 154 173 112 98 36 15 113 49 
93 65 83 53 90 43 135 4 66 68 
145 8 157 111 63 102 20 24 105 95 
56 126 17 25 22 174 139 125 127 137 
88 164 153 
